# Solution for model example
# Objective value = 66000
y_state0_action0 0
y_state0_action1 1
y_state1_action1 1
y_state2_action0 0
y_state2_action1 1
y_state3_action1 1
y_state4_action0 1
y_state4_action1 0
y_state5_action0 0
y_state5_action1 0
y_state6_action1 0
y_state7_action0 0
y_state7_action1 0
y_state8_action1 0
y_state9_action0 0
y_state10_action0 0
y_state11_action0 0
y_state12_action0 1
y_state13_action0 0
y_state14_action0 0
y_state15_action0 0
y_state16_action1 0
y_state17_action0 0
y_state18_action0 0
y_state19_action0 1
y_state20_action1 0
y_state21_action0 0
y_state22_action0 0
y_state23_action0 0
y_state24_action0 0
y_state25_action2 0
y_state26_action2 0
y_state26_action1 0
y_state27_action0 0
y_state28_action0 1
y_state29_action0 0
y_state30_action2 0
y_state31_action2 0
y_state31_action1 0
y_state32_action0 0
y_state33_action0 0
y_state34_action0 1
y_state35_action2 1
y_state36_action2 1
y_state37_action2 1
y_state38_action2 1
y_state38_action1 1
y_state39_action0 1
y_state40_action2 0
y_state41_action2 0
y_state42_action2 0
y_state43_action2 0
y_state44_action0 0
y_state44_action1 1
y_state45_action1 1
y_state46_action0 0
y_state46_action1 1
y_state47_action1 1
y_state48_action0 1
y_state48_action1 0
y_state49_action0 0
y_state49_action1 1
y_state50_action1 1
y_state51_action0 0
y_state51_action1 1
y_state52_action1 1
y_state53_action0 1
y_state54_action0 0
y_state55_action0 0
y_state56_action0 1
y_state57_action0 0
y_state58_action0 0
y_state59_action0 1
y_state60_action1 0
y_state61_action0 0
y_state62_action0 0
y_state63_action0 1
y_state64_action1 0
y_state65_action0 0
y_state66_action0 0
y_state67_action0 1
y_state68_action0 0
y_state69_action2 0
y_state70_action2 0
y_state70_action1 0
y_state71_action0 0
y_state72_action0 1
y_state73_action0 0
y_state74_action2 0
y_state75_action2 0
y_state75_action1 0
y_state76_action0 0
y_state77_action0 1
y_state79_action2 0
y_state80_action2 0
y_state81_action2 0
y_state82_action2 0
y_state82_action1 1
y_state83_action3 1
y_state84_action2 1
y_state85_action2 1
y_state86_action2 1
y_state87_action2 1
x_reward0_state0_lower 22
x_reward0_state0_upper 2.1999999999999091e+01
x_reward0_state1_lower 21
x_reward0_state1_upper 2.0999999999999091e+01
x_reward0_state2_lower 20
x_reward0_state2_upper 1.9999999999999091e+01
x_reward0_state3_lower 19
x_reward0_state3_upper 1.8999999999999091e+01
x_reward0_state4_lower 18
x_reward0_state4_upper 1.7999999999999091e+01
x_reward0_state5_lower 13
x_reward0_state5_upper 1.0169999999999991e+03
x_reward0_state6_lower 1014
x_reward0_state6_upper 2.0159999999999991e+03
x_reward0_state7_lower 13
x_reward0_state7_upper 3.0149999999999991e+03
x_reward0_state8_lower 1016
x_reward0_state8_upper 4.0139999999999991e+03
x_reward0_state9_lower 15
x_reward0_state9_upper 5.0129999999999991e+03
x_reward0_state10_lower 5015
x_reward0_state10_upper 1.0209999999999991e+03
x_reward0_state11_lower 4017
x_reward0_state11_upper 1.0189999999999991e+03
x_reward0_state12_lower 17
x_reward0_state12_upper 1.6999999999999091e+01
x_reward0_state13_lower 5018
x_reward0_state13_upper 2.0159999999999991e+03
x_reward0_state14_lower 2012
x_reward0_state14_upper 4.0139999999999991e+03
x_reward0_state15_lower 1014
x_reward0_state15_upper 6.0119999999999991e+03
x_reward0_state16_lower 4014
x_reward0_state16_upper 2.0199999999999991e+03
x_reward0_state17_lower 3013
x_reward0_state17_upper 3.0189999999999991e+03
x_reward0_state18_lower 3016
x_reward0_state18_upper 2.0179999999999991e+03
x_reward0_state19_lower 16
x_reward0_state19_upper 1.5999999999999091e+01
x_reward0_state20_lower 4017
x_reward0_state20_upper 3.0149999999999991e+03
x_reward0_state21_lower 3016
x_reward0_state21_upper 4.0139999999999991e+03
x_reward0_state22_lower 1011
x_reward0_state22_upper 5.0129999999999991e+03
x_reward0_state23_lower 13
x_reward0_state23_upper 7.0109999999999991e+03
x_reward0_state24_lower 1011
x_reward0_state24_upper 5.0149999999999991e+03
x_reward0_state25_lower 2012
x_reward0_state25_upper 4.0159999999999991e+03
x_reward0_state26_lower 2015
x_reward0_state26_upper 3.0169999999999991e+03
x_reward0_state27_lower 1014
x_reward0_state27_upper 4.0159999999999991e+03
x_reward0_state28_lower 15
x_reward0_state28_upper 1.4999999999999091e+01
x_reward0_state29_lower 1014
x_reward0_state29_upper 999
x_reward0_state30_lower 2015
x_reward0_state30_upper 0
x_reward0_state31_lower 10
x_reward0_state31_upper 6.0119999999999991e+03
x_reward0_state32_lower 4017
x_reward0_state32_upper 7.0109999999999991e+03
x_reward0_state33_lower 5018
x_reward0_state33_upper 8.0099999999999991e+03
x_reward0_state34_lower 10
x_reward0_state34_upper 9.9999999999981810e+00
x_reward0_state35_lower 11
x_reward0_state35_upper 1.0999999999999091e+01
x_reward0_state36_lower 12
x_reward0_state36_upper 1.1999999999999091e+01
x_reward0_state37_lower 13
x_reward0_state37_upper 1.2999999999999091e+01
x_reward0_state38_lower 14
x_reward0_state38_upper 1.3999999999999091e+01
x_reward0_state39_lower 13
x_reward0_state39_upper 1.2999999999999091e+01
x_reward0_state40_lower 1014
x_reward0_state40_upper 999
x_reward0_state41_lower 2015
x_reward0_state41_upper 0
x_reward0_state42_lower 3016
x_reward0_state42_upper 8010
x_reward0_state43_lower 4017
x_reward0_state43_upper 9009
x_reward0_state44_lower 9
x_reward0_state44_upper 8.9999999999981810e+00
x_reward0_state45_lower 8
x_reward0_state45_upper 7.9999999999981810e+00
x_reward0_state46_lower 7
x_reward0_state46_upper 6.9999999999981810e+00
x_reward0_state47_lower 6
x_reward0_state47_upper 5.9999999999981810e+00
x_reward0_state48_lower 5
x_reward0_state48_upper 4.9999999999981810e+00
x_reward0_state49_lower 12
x_reward0_state49_upper 1.1999999999999091e+01
x_reward0_state50_lower 11
x_reward0_state50_upper 1.0999999999999091e+01
x_reward0_state51_lower 10
x_reward0_state51_upper 9.99999999999909
x_reward0_state52_lower 9
x_reward0_state52_upper 8.99999999999909
x_reward0_state53_lower 8
x_reward0_state53_upper 7.9999999999990905e+00
x_reward0_state54_lower 0
x_reward0_state54_upper 0
x_reward0_state55_lower 0
x_reward0_state55_upper 0
x_reward0_state56_lower 4
x_reward0_state56_upper 3.9999999999981810e+00
x_reward0_state57_lower 5005
x_reward0_state57_upper 1.0109999999999991e+03
x_reward0_state58_lower 4007
x_reward0_state58_upper 1.0089999999999991e+03
x_reward0_state59_lower 7
x_reward0_state59_upper 6.9999999999990905e+00
x_reward0_state60_lower 0
x_reward0_state60_upper 0
x_reward0_state61_lower 0
x_reward0_state61_upper 0
x_reward0_state62_lower 0
x_reward0_state62_upper 0
x_reward0_state63_lower 3
x_reward0_state63_upper 2.9999999999981810e+00
x_reward0_state64_lower 4004
x_reward0_state64_upper 2.0099999999999991e+03
x_reward0_state65_lower 3003
x_reward0_state65_upper 3.0089999999999991e+03
x_reward0_state66_lower 3006
x_reward0_state66_upper 2.0079999999999991e+03
x_reward0_state67_lower 6
x_reward0_state67_upper 5.9999999999990905e+00
x_reward0_state68_lower 0
x_reward0_state68_upper 0
x_reward0_state69_lower 0
x_reward0_state69_upper 0
x_reward0_state70_lower 0
x_reward0_state70_upper 0
x_reward0_state71_lower 0
x_reward0_state71_upper 0
x_reward0_state72_lower 2
x_reward0_state72_upper 1.9999999999981810e+00
x_reward0_state73_lower 1001
x_reward0_state73_upper 0
x_reward0_state74_lower 2002
x_reward0_state74_upper 0
x_reward0_state75_lower 2005
x_reward0_state75_upper 3.0069999999999991e+03
x_reward0_state76_lower 1004
x_reward0_state76_upper 4.0059999999999991e+03
x_reward0_state77_lower 5
x_reward0_state77_upper 4.9999999999990905e+00
x_reward0_state78_lower 0
x_reward0_state78_upper 0
x_reward0_state79_lower 0
x_reward0_state79_upper 0
x_reward0_state80_lower 0
x_reward0_state80_upper 0
x_reward0_state81_lower 0
x_reward0_state81_upper 0
x_reward0_state82_lower 1
x_reward0_state82_upper 1
x_reward0_state83_lower 0
x_reward0_state83_upper 0
x_reward0_state84_lower 1
x_reward0_state84_upper 1
x_reward0_state85_lower 2
x_reward0_state85_upper 2
x_reward0_state86_lower 3
x_reward0_state86_upper 3
x_reward0_state87_lower 4
x_reward0_state87_upper 3.9999999999990905e+00
x_reward1_state0_lower 0
x_reward1_state0_upper 0
x_reward1_state1_lower 0
x_reward1_state1_upper 0
x_reward1_state2_lower 0
x_reward1_state2_upper 0
x_reward1_state3_lower 0
x_reward1_state3_upper 0
x_reward1_state4_lower 0
x_reward1_state4_upper 0
x_reward1_state5_lower 0
x_reward1_state5_upper 1000
x_reward1_state6_lower 1000
x_reward1_state6_upper 2000
x_reward1_state7_lower 0
x_reward1_state7_upper 3000
x_reward1_state8_lower 1000
x_reward1_state8_upper 4000
x_reward1_state9_lower 0
x_reward1_state9_upper 5000
x_reward1_state10_lower 5005
x_reward1_state10_upper 1000
x_reward1_state11_lower 4001
x_reward1_state11_upper 1000
x_reward1_state12_lower 0
x_reward1_state12_upper 0
x_reward1_state13_lower 5005
x_reward1_state13_upper 2000
x_reward1_state14_lower 2001
x_reward1_state14_upper 4000
x_reward1_state15_lower 1000
x_reward1_state15_upper 6000
x_reward1_state16_lower 4005
x_reward1_state16_upper 2000
x_reward1_state17_lower 3004
x_reward1_state17_upper 2999
x_reward1_state18_lower 3001
x_reward1_state18_upper 2000
x_reward1_state19_lower 0
x_reward1_state19_upper 0
x_reward1_state20_lower 4005
x_reward1_state20_upper 3000
x_reward1_state21_lower 3004
x_reward1_state21_upper 3999
x_reward1_state22_lower 1001
x_reward1_state22_upper 5000
x_reward1_state23_lower 0
x_reward1_state23_upper 7000
x_reward1_state24_lower 1001
x_reward1_state24_upper 4996
x_reward1_state25_lower 2002.5
x_reward1_state25_upper 3997.5
x_reward1_state26_lower 2001
x_reward1_state26_upper 3000
x_reward1_state27_lower 1001
x_reward1_state27_upper 4000
x_reward1_state28_lower 0
x_reward1_state28_upper 0
x_reward1_state29_lower 1001
x_reward1_state29_upper 998.5
x_reward1_state30_lower 2002.5
x_reward1_state30_upper 0
x_reward1_state31_lower 1
x_reward1_state31_upper 6000
x_reward1_state32_lower 4001
x_reward1_state32_upper 7000
x_reward1_state33_lower 5000
x_reward1_state33_upper 8000
x_reward1_state34_lower 0
x_reward1_state34_upper 0
x_reward1_state35_lower 0
x_reward1_state35_upper 0
x_reward1_state36_lower 0
x_reward1_state36_upper 0
x_reward1_state37_lower 0
x_reward1_state37_upper 0
x_reward1_state38_lower 0
x_reward1_state38_upper 0
x_reward1_state39_lower 0
x_reward1_state39_upper 0
x_reward1_state40_lower 1000
x_reward1_state40_upper 1000
x_reward1_state41_lower 2000
x_reward1_state41_upper 0
x_reward1_state42_lower 3000
x_reward1_state42_upper 5000
x_reward1_state43_lower 4000
x_reward1_state43_upper 9000
x_reward1_state44_lower 0
x_reward1_state44_upper 0
x_reward1_state45_lower 0
x_reward1_state45_upper 0
x_reward1_state46_lower 0
x_reward1_state46_upper 0
x_reward1_state47_lower 0
x_reward1_state47_upper 0
x_reward1_state48_lower 0
x_reward1_state48_upper 0
x_reward1_state49_lower 0
x_reward1_state49_upper 0
x_reward1_state50_lower 0
x_reward1_state50_upper 0
x_reward1_state51_lower 0
x_reward1_state51_upper 0
x_reward1_state52_lower 0
x_reward1_state52_upper 0
x_reward1_state53_lower 0
x_reward1_state53_upper 0
x_reward1_state54_lower 0
x_reward1_state54_upper 0
x_reward1_state55_lower 0
x_reward1_state55_upper 0
x_reward1_state56_lower 0
x_reward1_state56_upper 0
x_reward1_state57_lower 5005
x_reward1_state57_upper 1000
x_reward1_state58_lower 2001
x_reward1_state58_upper 1000
x_reward1_state59_lower 0
x_reward1_state59_upper 0
x_reward1_state60_lower 0
x_reward1_state60_upper 0
x_reward1_state61_lower 0
x_reward1_state61_upper 0
x_reward1_state62_lower 0
x_reward1_state62_upper 0
x_reward1_state63_lower 0
x_reward1_state63_upper 0
x_reward1_state64_lower 4005
x_reward1_state64_upper 2000
x_reward1_state65_lower 3004
x_reward1_state65_upper 2999
x_reward1_state66_lower 1001
x_reward1_state66_upper 2000
x_reward1_state67_lower 0
x_reward1_state67_upper 0
x_reward1_state68_lower 0
x_reward1_state68_upper 0
x_reward1_state69_lower 0
x_reward1_state69_upper 0
x_reward1_state70_lower 0
x_reward1_state70_upper 0
x_reward1_state71_lower 0
x_reward1_state71_upper 0
x_reward1_state72_lower 0
x_reward1_state72_upper 0
x_reward1_state73_lower 1001
x_reward1_state73_upper 0
x_reward1_state74_lower 2002.5
x_reward1_state74_upper 0
x_reward1_state75_lower 1
x_reward1_state75_upper 3000
x_reward1_state76_lower 1001
x_reward1_state76_upper 0
x_reward1_state77_lower 0
x_reward1_state77_upper 0
x_reward1_state78_lower 0
x_reward1_state78_upper 0
x_reward1_state79_lower 0
x_reward1_state79_upper 0
x_reward1_state80_lower 0
x_reward1_state80_upper 0
x_reward1_state81_lower 0
x_reward1_state81_upper 0
x_reward1_state82_lower 0
x_reward1_state82_upper 0
x_reward1_state83_lower 0
x_reward1_state83_upper 0
x_reward1_state84_lower 0
x_reward1_state84_upper 0
x_reward1_state85_lower 0
x_reward1_state85_upper 0
x_reward1_state86_lower 0
x_reward1_state86_upper 0
x_reward1_state87_lower 0
x_reward1_state87_upper 0
x_reward2_state0_lower 1
x_reward2_state0_upper 1
x_reward2_state1_lower 1
x_reward2_state1_upper 1
x_reward2_state2_lower 1
x_reward2_state2_upper 1
x_reward2_state3_lower 1
x_reward2_state3_upper 1
x_reward2_state4_lower 1
x_reward2_state4_upper 1
x_reward2_state5_lower 1
x_reward2_state5_upper 1001
x_reward2_state6_lower 1001
x_reward2_state6_upper 2001
x_reward2_state7_lower 1
x_reward2_state7_upper 3001
x_reward2_state8_lower 1001
x_reward2_state8_upper 4001
x_reward2_state9_lower 1
x_reward2_state9_upper 5001
x_reward2_state10_lower 5005
x_reward2_state10_upper 1001
x_reward2_state11_lower 4003
x_reward2_state11_upper 1001
x_reward2_state12_lower 1
x_reward2_state12_upper 1
x_reward2_state13_lower 5006
x_reward2_state13_upper 2001
x_reward2_state14_lower 2003
x_reward2_state14_upper 4001
x_reward2_state15_lower 1001
x_reward2_state15_upper 6001
x_reward2_state16_lower 4004
x_reward2_state16_upper 2000
x_reward2_state17_lower 3003
x_reward2_state17_upper 2999
x_reward2_state18_lower 3002
x_reward2_state18_upper 2000
x_reward2_state19_lower 1
x_reward2_state19_upper 1
x_reward2_state20_lower 4005
x_reward2_state20_upper 3000
x_reward2_state21_lower 3004
x_reward2_state21_upper 3999
x_reward2_state22_lower 1002
x_reward2_state22_upper 5000
x_reward2_state23_lower 1
x_reward2_state23_upper 7001
x_reward2_state24_lower 1001
x_reward2_state24_upper 4997
x_reward2_state25_lower 2002
x_reward2_state25_upper 3998
x_reward2_state26_lower 2001
x_reward2_state26_upper 2999
x_reward2_state27_lower 1001
x_reward2_state27_upper 3999
x_reward2_state28_lower 1
x_reward2_state28_upper 1
x_reward2_state29_lower 1002
x_reward2_state29_upper 999
x_reward2_state30_lower 2003
x_reward2_state30_upper 0
x_reward2_state31_lower 1
x_reward2_state31_upper 5999
x_reward2_state32_lower 4002
x_reward2_state32_upper 6999
x_reward2_state33_lower 5002
x_reward2_state33_upper 8001
x_reward2_state34_lower 0
x_reward2_state34_upper 0
x_reward2_state35_lower 0
x_reward2_state35_upper 0
x_reward2_state36_lower 0
x_reward2_state36_upper 0
x_reward2_state37_lower 0
x_reward2_state37_upper 0
x_reward2_state38_lower 1
x_reward2_state38_upper 1
x_reward2_state39_lower 1
x_reward2_state39_upper 1
x_reward2_state40_lower 1001
x_reward2_state40_upper 1000
x_reward2_state41_lower 2001
x_reward2_state41_upper 0
x_reward2_state42_lower 3001
x_reward2_state42_upper 5001
x_reward2_state43_lower 4002
x_reward2_state43_upper 9001
x_reward2_state44_lower 0
x_reward2_state44_upper 0
x_reward2_state45_lower 0
x_reward2_state45_upper 0
x_reward2_state46_lower 0
x_reward2_state46_upper 0
x_reward2_state47_lower 0
x_reward2_state47_upper 0
x_reward2_state48_lower 0
x_reward2_state48_upper 0
x_reward2_state49_lower 1
x_reward2_state49_upper 1
x_reward2_state50_lower 1
x_reward2_state50_upper 1
x_reward2_state51_lower 1
x_reward2_state51_upper 1
x_reward2_state52_lower 1
x_reward2_state52_upper 1
x_reward2_state53_lower 1
x_reward2_state53_upper 1
x_reward2_state54_lower 0
x_reward2_state54_upper 0
x_reward2_state55_lower 0
x_reward2_state55_upper 0
x_reward2_state56_lower 0
x_reward2_state56_upper 0
x_reward2_state57_lower 5005
x_reward2_state57_upper 1001
x_reward2_state58_lower 4003
x_reward2_state58_upper 1001
x_reward2_state59_lower 1
x_reward2_state59_upper 1
x_reward2_state60_lower 0
x_reward2_state60_upper 0
x_reward2_state61_lower 0
x_reward2_state61_upper 0
x_reward2_state62_lower 0
x_reward2_state62_upper 0
x_reward2_state63_lower 0
x_reward2_state63_upper 0
x_reward2_state64_lower 4004
x_reward2_state64_upper 2000
x_reward2_state65_lower 3003
x_reward2_state65_upper 2999
x_reward2_state66_lower 3002
x_reward2_state66_upper 2000
x_reward2_state67_lower 1
x_reward2_state67_upper 1
x_reward2_state68_lower 0
x_reward2_state68_upper 0
x_reward2_state69_lower 0
x_reward2_state69_upper 0
x_reward2_state70_lower 0
x_reward2_state70_upper 0
x_reward2_state71_lower 0
x_reward2_state71_upper 0
x_reward2_state72_lower 0
x_reward2_state72_upper 0
x_reward2_state73_lower 1001
x_reward2_state73_upper 0
x_reward2_state74_lower 2002
x_reward2_state74_upper 0
x_reward2_state75_lower 2001
x_reward2_state75_upper 2999
x_reward2_state76_lower 1001
x_reward2_state76_upper 0
x_reward2_state77_lower 1
x_reward2_state77_upper 1
x_reward2_state78_lower 0
x_reward2_state78_upper 0
x_reward2_state79_lower 0
x_reward2_state79_upper 0
x_reward2_state80_lower 0
x_reward2_state80_upper 0
x_reward2_state81_lower 0
x_reward2_state81_upper 0
x_reward2_state82_lower 0
x_reward2_state82_upper 0
x_reward2_state83_lower 0
x_reward2_state83_upper 0
x_reward2_state84_lower 0
x_reward2_state84_upper 0
x_reward2_state85_lower 0
x_reward2_state85_upper 0
x_reward2_state86_lower 0
x_reward2_state86_upper 0
x_reward2_state87_lower 1
x_reward2_state87_upper 1
